; benchmark generated from python API
(set-info :status unknown)
(declare-fun x_months () Int)
(declare-fun x_beta () Int)
(declare-fun y_months () Int)
(declare-fun y_beta () Int)
(assert
 (<= (- 1202) x_months))
(assert
 (>= 1209 x_months))
(assert
 (let ((?x2260 (mod x_months 48)))
 (let ((?x13 ((as const (Array Int Int)) 0)))
 (let ((?x15 (store ?x13 0 31)))
 (let ((?x18 (store ?x15 1 30)))
 (let ((?x20 (store ?x18 2 31)))
 (let ((?x22 (store ?x20 3 30)))
 (let ((?x24 (store ?x22 4 31)))
 (let ((?x26 (store ?x24 5 31)))
 (let ((?x28 (store ?x26 6 30)))
 (let ((?x30 (store ?x28 7 31)))
 (let ((?x32 (store ?x30 8 30)))
 (let ((?x34 (store ?x32 9 31)))
 (let ((?x36 (store ?x34 10 31)))
 (let ((?x39 (store ?x36 11 28)))
 (let ((?x41 (store ?x39 12 31)))
 (let ((?x43 (store ?x41 13 30)))
 (let ((?x45 (store ?x43 14 31)))
 (let ((?x47 (store ?x45 15 30)))
 (let ((?x49 (store ?x47 16 31)))
 (let ((?x51 (store ?x49 17 31)))
 (let ((?x53 (store ?x51 18 30)))
 (let ((?x55 (store ?x53 19 31)))
 (let ((?x57 (store ?x55 20 30)))
 (let ((?x59 (store ?x57 21 31)))
 (let ((?x61 (store ?x59 22 31)))
 (let ((?x63 (store ?x61 23 28)))
 (let ((?x65 (store ?x63 24 31)))
 (let ((?x67 (store ?x65 25 30)))
 (let ((?x69 (store ?x67 26 31)))
 (let ((?x71 (store ?x69 27 30)))
 (let ((?x72 (store ?x71 28 31)))
 (let ((?x74 (store ?x72 29 31)))
 (let ((?x75 (store ?x74 30 30)))
 (let ((?x76 (store ?x75 31 31)))
 (let ((?x78 (store ?x76 32 30)))
 (let ((?x80 (store ?x78 33 31)))
 (let ((?x82 (store ?x80 34 31)))
 (let ((?x84 (store ?x82 35 28)))
 (let ((?x86 (store ?x84 36 31)))
 (let ((?x88 (store ?x86 37 30)))
 (let ((?x90 (store ?x88 38 31)))
 (let ((?x92 (store ?x90 39 30)))
 (let ((?x94 (store ?x92 40 31)))
 (let ((?x96 (store ?x94 41 31)))
 (let ((?x98 (store ?x96 42 30)))
 (let ((?x100 (store ?x98 43 31)))
 (let ((?x102 (store ?x100 44 30)))
 (let ((?x104 (store ?x102 45 31)))
 (let ((?x106 (store ?x104 46 31)))
 (let ((?x108 (store ?x106 47 29)))
 (let ((?x3556 (select ?x108 ?x2260)))
 (let ((?x272 (ite (or (= 22802 (+ x_months 24003)) (= 25202 (+ x_months 24003))) 28 ?x3556)))
 (let (($x4746 (<= 0 x_beta)))
 (and $x4746 (< x_beta ?x272))))))))))))))))))))))))))))))))))))))))))))))))))))))))
(assert
 (<= (- 1202) y_months))
(assert
 (>= 1209 y_months))
(assert
 (let ((?x5541 (mod y_months 48)))
 (let ((?x13 ((as const (Array Int Int)) 0)))
 (let ((?x15 (store ?x13 0 31)))
 (let ((?x18 (store ?x15 1 30)))
 (let ((?x20 (store ?x18 2 31)))
 (let ((?x22 (store ?x20 3 30)))
 (let ((?x24 (store ?x22 4 31)))
 (let ((?x26 (store ?x24 5 31)))
 (let ((?x28 (store ?x26 6 30)))
 (let ((?x30 (store ?x28 7 31)))
 (let ((?x32 (store ?x30 8 30)))
 (let ((?x34 (store ?x32 9 31)))
 (let ((?x36 (store ?x34 10 31)))
 (let ((?x39 (store ?x36 11 28)))
 (let ((?x41 (store ?x39 12 31)))
 (let ((?x43 (store ?x41 13 30)))
 (let ((?x45 (store ?x43 14 31)))
 (let ((?x47 (store ?x45 15 30)))
 (let ((?x49 (store ?x47 16 31)))
 (let ((?x51 (store ?x49 17 31)))
 (let ((?x53 (store ?x51 18 30)))
 (let ((?x55 (store ?x53 19 31)))
 (let ((?x57 (store ?x55 20 30)))
 (let ((?x59 (store ?x57 21 31)))
 (let ((?x61 (store ?x59 22 31)))
 (let ((?x63 (store ?x61 23 28)))
 (let ((?x65 (store ?x63 24 31)))
 (let ((?x67 (store ?x65 25 30)))
 (let ((?x69 (store ?x67 26 31)))
 (let ((?x71 (store ?x69 27 30)))
 (let ((?x72 (store ?x71 28 31)))
 (let ((?x74 (store ?x72 29 31)))
 (let ((?x75 (store ?x74 30 30)))
 (let ((?x76 (store ?x75 31 31)))
 (let ((?x78 (store ?x76 32 30)))
 (let ((?x80 (store ?x78 33 31)))
 (let ((?x82 (store ?x80 34 31)))
 (let ((?x84 (store ?x82 35 28)))
 (let ((?x86 (store ?x84 36 31)))
 (let ((?x88 (store ?x86 37 30)))
 (let ((?x90 (store ?x88 38 31)))
 (let ((?x92 (store ?x90 39 30)))
 (let ((?x94 (store ?x92 40 31)))
 (let ((?x96 (store ?x94 41 31)))
 (let ((?x98 (store ?x96 42 30)))
 (let ((?x100 (store ?x98 43 31)))
 (let ((?x102 (store ?x100 44 30)))
 (let ((?x104 (store ?x102 45 31)))
 (let ((?x106 (store ?x104 46 31)))
 (let ((?x108 (store ?x106 47 29)))
 (let ((?x3830 (select ?x108 ?x5541)))
 (let ((?x5442 (ite (or (= 22802 (+ y_months 24003)) (= 25202 (+ y_months 24003))) 28 ?x3830)))
 (and (<= 0 y_beta) (< y_beta ?x5442)))))))))))))))))))))))))))))))))))))))))))))))))))))))
(assert
 (let (($x3573 (and (= x_months (- (+ (* 2019 12) 12) 24003)) (<= 30 x_beta))))
 (or (> x_months (- (+ (* 2019 12) 12) 24003)) $x3573)))
(assert
 (let (($x3367 (and (= x_months (- (+ (* 2020 12) 2) 24003)) (>= 0 x_beta))))
 (or (< x_months (- (+ (* 2020 12) 2) 24003)) $x3367)))
(assert
 (let ((?x4162 (+ x_months 12)))
 (let ((?x3802 (mod ?x4162 48)))
 (let ((?x1689 (ite (> 22803 (+ ?x4162 24003)) 1 (ite (<= 25203 (+ ?x4162 24003)) (- 1) 0))))
 (let ((?x13 ((as const (Array Int Int)) 0)))
 (let ((?x15 (store ?x13 0 31)))
 (let ((?x18 (store ?x15 1 30)))
 (let ((?x20 (store ?x18 2 31)))
 (let ((?x22 (store ?x20 3 30)))
 (let ((?x24 (store ?x22 4 31)))
 (let ((?x26 (store ?x24 5 31)))
 (let ((?x28 (store ?x26 6 30)))
 (let ((?x30 (store ?x28 7 31)))
 (let ((?x32 (store ?x30 8 30)))
 (let ((?x34 (store ?x32 9 31)))
 (let ((?x36 (store ?x34 10 31)))
 (let ((?x39 (store ?x36 11 28)))
 (let ((?x41 (store ?x39 12 31)))
 (let ((?x43 (store ?x41 13 30)))
 (let ((?x45 (store ?x43 14 31)))
 (let ((?x47 (store ?x45 15 30)))
 (let ((?x49 (store ?x47 16 31)))
 (let ((?x51 (store ?x49 17 31)))
 (let ((?x53 (store ?x51 18 30)))
 (let ((?x55 (store ?x53 19 31)))
 (let ((?x57 (store ?x55 20 30)))
 (let ((?x59 (store ?x57 21 31)))
 (let ((?x61 (store ?x59 22 31)))
 (let ((?x63 (store ?x61 23 28)))
 (let ((?x65 (store ?x63 24 31)))
 (let ((?x67 (store ?x65 25 30)))
 (let ((?x69 (store ?x67 26 31)))
 (let ((?x71 (store ?x69 27 30)))
 (let ((?x72 (store ?x71 28 31)))
 (let ((?x74 (store ?x72 29 31)))
 (let ((?x75 (store ?x74 30 30)))
 (let ((?x76 (store ?x75 31 31)))
 (let ((?x78 (store ?x76 32 30)))
 (let ((?x80 (store ?x78 33 31)))
 (let ((?x82 (store ?x80 34 31)))
 (let ((?x84 (store ?x82 35 28)))
 (let ((?x86 (store ?x84 36 31)))
 (let ((?x88 (store ?x86 37 30)))
 (let ((?x90 (store ?x88 38 31)))
 (let ((?x92 (store ?x90 39 30)))
 (let ((?x94 (store ?x92 40 31)))
 (let ((?x96 (store ?x94 41 31)))
 (let ((?x98 (store ?x96 42 30)))
 (let ((?x100 (store ?x98 43 31)))
 (let ((?x102 (store ?x100 44 30)))
 (let ((?x104 (store ?x102 45 31)))
 (let ((?x106 (store ?x104 46 31)))
 (let ((?x108 (store ?x106 47 29)))
 (let ((?x3121 (ite (or (= 22802 (+ ?x4162 24003)) (= 25202 (+ ?x4162 24003))) 28 (select ?x108 ?x3802))))
 (let ((?x3737 (- ?x3121 1)))
 (let (($x3585 (> 0 x_beta)))
 (let ((?x114 (store (store (store (store ?x13 0 0) 1 31) 2 61) 3 92)))
 (let ((?x122 (store (store (store (store ?x114 4 122) 5 153) 6 184) 7 214)))
 (let ((?x130 (store (store (store (store ?x122 8 245) 9 275) 10 306) 11 337)))
 (let ((?x138 (store (store (store (store ?x130 12 365) 13 396) 14 426) 15 457)))
 (let ((?x146 (store (store (store (store ?x138 16 487) 17 518) 18 549) 19 579)))
 (let ((?x154 (store (store (store (store ?x146 20 610) 21 640) 22 671) 23 702)))
 (let ((?x162 (store (store (store (store ?x154 24 730) 25 761) 26 791) 27 822)))
 (let ((?x170 (store (store (store (store ?x162 28 852) 29 883) 30 914) 31 944)))
 (let ((?x178 (store (store (store (store ?x170 32 975) 33 1005) 34 1036) 35 1067)))
 (let ((?x186 (store (store (store (store ?x178 36 1095) 37 1126) 38 1156) 39 1187)))
 (let ((?x194 (store (store (store (store ?x186 40 1217) 41 1248) 42 1279) 43 1309)))
 (let ((?x202 (store (store (store (store ?x194 44 1340) 45 1370) 46 1401) 47 1432)))
 (let ((?x2723 (+ (select ?x202 ?x3802) (ite $x3585 0 (ite (> x_beta ?x3737) ?x3737 x_beta)))))
 (let ((?x4127 (+ (+ ?x2723 ?x1689) 0)))
 (let ((?x2118 (+ ?x4162 (* (div ?x4127 1461) 48))))
 (let ((?x4378 (+ (+ ?x2118 (- 1 ?x3802)) 24003)))
 (let ((?x3002 (select ?x202 1)))
 (let ((?x1423 (mod ?x4127 1461)))
 (let (($x4346 (>= ?x1423 (+ ?x3002 (ite (> 22803 ?x4378) 1 (ite (<= 25203 ?x4378) (- 1) 0))))))
 (let ((?x1681 (ite (> 22803 (+ (+ ?x2118 (- 2 ?x3802)) 24003)) 1 (ite (<= 25203 (+ (+ ?x2118 (- 2 ?x3802)) 24003)) (- 1) 0))))
 (let ((?x4278 (select ?x202 2)))
 (let ((?x5482 (ite (> 22803 (+ (+ ?x2118 (- 3 ?x3802)) 24003)) 1 (ite (<= 25203 (+ (+ ?x2118 (- 3 ?x3802)) 24003)) (- 1) 0))))
 (let ((?x4797 (select ?x202 3)))
 (let ((?x1372 (ite (>= ?x1423 (+ ?x4797 ?x5482)) 3 (ite (>= ?x1423 (+ ?x4278 ?x1681)) 2 (ite $x4346 1 0)))))
 (let ((?x3638 (ite (> 22803 (+ (+ ?x2118 (- 4 ?x3802)) 24003)) 1 (ite (<= 25203 (+ (+ ?x2118 (- 4 ?x3802)) 24003)) (- 1) 0))))
 (let ((?x1966 (select ?x202 4)))
 (let ((?x5552 (ite (> 22803 (+ (+ ?x2118 (- 5 ?x3802)) 24003)) 1 (ite (<= 25203 (+ (+ ?x2118 (- 5 ?x3802)) 24003)) (- 1) 0))))
 (let ((?x1113 (select ?x202 5)))
 (let ((?x2086 (ite (>= ?x1423 (+ ?x1113 ?x5552)) 5 (ite (>= ?x1423 (+ ?x1966 ?x3638)) 4 ?x1372))))
 (let ((?x3903 (ite (> 22803 (+ (+ ?x2118 (- 6 ?x3802)) 24003)) 1 (ite (<= 25203 (+ (+ ?x2118 (- 6 ?x3802)) 24003)) (- 1) 0))))
 (let ((?x4270 (select ?x202 6)))
 (let ((?x1138 (ite (> 22803 (+ (+ ?x2118 (- 7 ?x3802)) 24003)) 1 (ite (<= 25203 (+ (+ ?x2118 (- 7 ?x3802)) 24003)) (- 1) 0))))
 (let ((?x207 (select ?x202 7)))
 (let ((?x3522 (ite (>= ?x1423 (+ ?x207 ?x1138)) 7 (ite (>= ?x1423 (+ ?x4270 ?x3903)) 6 ?x2086))))
 (let ((?x2502 (ite (> 22803 (+ (+ ?x2118 (- 8 ?x3802)) 24003)) 1 (ite (<= 25203 (+ (+ ?x2118 (- 8 ?x3802)) 24003)) (- 1) 0))))
 (let ((?x4348 (select ?x202 8)))
 (let ((?x2755 (ite (> 22803 (+ (+ ?x2118 (- 9 ?x3802)) 24003)) 1 (ite (<= 25203 (+ (+ ?x2118 (- 9 ?x3802)) 24003)) (- 1) 0))))
 (let ((?x2156 (select ?x202 9)))
 (let ((?x2017 (ite (>= ?x1423 (+ ?x2156 ?x2755)) 9 (ite (>= ?x1423 (+ ?x4348 ?x2502)) 8 ?x3522))))
 (let ((?x4196 (ite (> 22803 (+ (+ ?x2118 (- 10 ?x3802)) 24003)) 1 (ite (<= 25203 (+ (+ ?x2118 (- 10 ?x3802)) 24003)) (- 1) 0))))
 (let ((?x3721 (select ?x202 10)))
 (let ((?x3605 (ite (> 22803 (+ (+ ?x2118 (- 11 ?x3802)) 24003)) 1 (ite (<= 25203 (+ (+ ?x2118 (- 11 ?x3802)) 24003)) (- 1) 0))))
 (let ((?x1432 (select ?x202 11)))
 (let ((?x3445 (ite (>= ?x1423 (+ ?x1432 ?x3605)) 11 (ite (>= ?x1423 (+ ?x3721 ?x4196)) 10 ?x2017))))
 (let ((?x3404 (ite (> 22803 (+ (+ ?x2118 (- 12 ?x3802)) 24003)) 1 (ite (<= 25203 (+ (+ ?x2118 (- 12 ?x3802)) 24003)) (- 1) 0))))
 (let ((?x2925 (select ?x202 12)))
 (let ((?x276 (ite (> 22803 (+ (+ ?x2118 (- 13 ?x3802)) 24003)) 1 (ite (<= 25203 (+ (+ ?x2118 (- 13 ?x3802)) 24003)) (- 1) 0))))
 (let ((?x4624 (select ?x202 13)))
 (let ((?x3609 (ite (>= ?x1423 (+ ?x4624 ?x276)) 13 (ite (>= ?x1423 (+ ?x2925 ?x3404)) 12 ?x3445))))
 (let ((?x544 (ite (> 22803 (+ (+ ?x2118 (- 14 ?x3802)) 24003)) 1 (ite (<= 25203 (+ (+ ?x2118 (- 14 ?x3802)) 24003)) (- 1) 0))))
 (let ((?x1981 (select ?x202 14)))
 (let ((?x2306 (ite (> 22803 (+ (+ ?x2118 (- 15 ?x3802)) 24003)) 1 (ite (<= 25203 (+ (+ ?x2118 (- 15 ?x3802)) 24003)) (- 1) 0))))
 (let ((?x5040 (select ?x202 15)))
 (let ((?x6282 (ite (>= ?x1423 (+ ?x5040 ?x2306)) 15 (ite (>= ?x1423 (+ ?x1981 ?x544)) 14 ?x3609))))
 (let ((?x3715 (ite (> 22803 (+ (+ ?x2118 (- 16 ?x3802)) 24003)) 1 (ite (<= 25203 (+ (+ ?x2118 (- 16 ?x3802)) 24003)) (- 1) 0))))
 (let ((?x2484 (select ?x202 16)))
 (let ((?x3310 (ite (> 22803 (+ (+ ?x2118 (- 17 ?x3802)) 24003)) 1 (ite (<= 25203 (+ (+ ?x2118 (- 17 ?x3802)) 24003)) (- 1) 0))))
 (let ((?x3415 (select ?x202 17)))
 (let ((?x4615 (ite (>= ?x1423 (+ ?x3415 ?x3310)) 17 (ite (>= ?x1423 (+ ?x2484 ?x3715)) 16 ?x6282))))
 (let ((?x3373 (ite (> 22803 (+ (+ ?x2118 (- 18 ?x3802)) 24003)) 1 (ite (<= 25203 (+ (+ ?x2118 (- 18 ?x3802)) 24003)) (- 1) 0))))
 (let ((?x2356 (select ?x202 18)))
 (let ((?x3693 (ite (> 22803 (+ (+ ?x2118 (- 19 ?x3802)) 24003)) 1 (ite (<= 25203 (+ (+ ?x2118 (- 19 ?x3802)) 24003)) (- 1) 0))))
 (let ((?x3409 (select ?x202 19)))
 (let ((?x6265 (ite (>= ?x1423 (+ ?x3409 ?x3693)) 19 (ite (>= ?x1423 (+ ?x2356 ?x3373)) 18 ?x4615))))
 (let ((?x2602 (ite (> 22803 (+ (+ ?x2118 (- 20 ?x3802)) 24003)) 1 (ite (<= 25203 (+ (+ ?x2118 (- 20 ?x3802)) 24003)) (- 1) 0))))
 (let ((?x2524 (select ?x202 20)))
 (let ((?x4005 (ite (> 22803 (+ (+ ?x2118 (- 21 ?x3802)) 24003)) 1 (ite (<= 25203 (+ (+ ?x2118 (- 21 ?x3802)) 24003)) (- 1) 0))))
 (let ((?x2529 (select ?x202 21)))
 (let ((?x3733 (ite (>= ?x1423 (+ ?x2529 ?x4005)) 21 (ite (>= ?x1423 (+ ?x2524 ?x2602)) 20 ?x6265))))
 (let ((?x3804 (ite (> 22803 (+ (+ ?x2118 (- 22 ?x3802)) 24003)) 1 (ite (<= 25203 (+ (+ ?x2118 (- 22 ?x3802)) 24003)) (- 1) 0))))
 (let ((?x477 (select ?x202 22)))
 (let ((?x3287 (ite (> 22803 (+ (+ ?x2118 (- 23 ?x3802)) 24003)) 1 (ite (<= 25203 (+ (+ ?x2118 (- 23 ?x3802)) 24003)) (- 1) 0))))
 (let ((?x1897 (select ?x202 23)))
 (let ((?x4787 (ite (>= ?x1423 (+ ?x1897 ?x3287)) 23 (ite (>= ?x1423 (+ ?x477 ?x3804)) 22 ?x3733))))
 (let ((?x3632 (ite (> 22803 (+ (+ ?x2118 (- 24 ?x3802)) 24003)) 1 (ite (<= 25203 (+ (+ ?x2118 (- 24 ?x3802)) 24003)) (- 1) 0))))
 (let ((?x4433 (select ?x202 24)))
 (let ((?x5546 (ite (> 22803 (+ (+ ?x2118 (- 25 ?x3802)) 24003)) 1 (ite (<= 25203 (+ (+ ?x2118 (- 25 ?x3802)) 24003)) (- 1) 0))))
 (let ((?x3182 (select ?x202 25)))
 (let ((?x1133 (ite (>= ?x1423 (+ ?x3182 ?x5546)) 25 (ite (>= ?x1423 (+ ?x4433 ?x3632)) 24 ?x4787))))
 (let ((?x2595 (ite (> 22803 (+ (+ ?x2118 (- 26 ?x3802)) 24003)) 1 (ite (<= 25203 (+ (+ ?x2118 (- 26 ?x3802)) 24003)) (- 1) 0))))
 (let ((?x3191 (select ?x202 26)))
 (let ((?x2957 (ite (> 22803 (+ (+ ?x2118 (- 27 ?x3802)) 24003)) 1 (ite (<= 25203 (+ (+ ?x2118 (- 27 ?x3802)) 24003)) (- 1) 0))))
 (let ((?x4324 (select ?x202 27)))
 (let ((?x1497 (ite (>= ?x1423 (+ ?x4324 ?x2957)) 27 (ite (>= ?x1423 (+ ?x3191 ?x2595)) 26 ?x1133))))
 (let ((?x5565 (ite (> 22803 (+ (+ ?x2118 (- 28 ?x3802)) 24003)) 1 (ite (<= 25203 (+ (+ ?x2118 (- 28 ?x3802)) 24003)) (- 1) 0))))
 (let ((?x5510 (select ?x202 28)))
 (let ((?x2066 (ite (> 22803 (+ (+ ?x2118 (- 29 ?x3802)) 24003)) 1 (ite (<= 25203 (+ (+ ?x2118 (- 29 ?x3802)) 24003)) (- 1) 0))))
 (let ((?x1169 (select ?x202 29)))
 (let ((?x4798 (ite (>= ?x1423 (+ ?x1169 ?x2066)) 29 (ite (>= ?x1423 (+ ?x5510 ?x5565)) 28 ?x1497))))
 (let ((?x1753 (ite (> 22803 (+ (+ ?x2118 (- 30 ?x3802)) 24003)) 1 (ite (<= 25203 (+ (+ ?x2118 (- 30 ?x3802)) 24003)) (- 1) 0))))
 (let ((?x2189 (select ?x202 30)))
 (let ((?x2645 (ite (> 22803 (+ (+ ?x2118 (- 31 ?x3802)) 24003)) 1 (ite (<= 25203 (+ (+ ?x2118 (- 31 ?x3802)) 24003)) (- 1) 0))))
 (let ((?x418 (select ?x202 31)))
 (let ((?x5484 (ite (>= ?x1423 (+ ?x418 ?x2645)) 31 (ite (>= ?x1423 (+ ?x2189 ?x1753)) 30 ?x4798))))
 (let ((?x2094 (ite (> 22803 (+ (+ ?x2118 (- 32 ?x3802)) 24003)) 1 (ite (<= 25203 (+ (+ ?x2118 (- 32 ?x3802)) 24003)) (- 1) 0))))
 (let ((?x3431 (select ?x202 32)))
 (let ((?x3983 (ite (> 22803 (+ (+ ?x2118 (- 33 ?x3802)) 24003)) 1 (ite (<= 25203 (+ (+ ?x2118 (- 33 ?x3802)) 24003)) (- 1) 0))))
 (let ((?x3606 (select ?x202 33)))
 (let ((?x4719 (ite (>= ?x1423 (+ ?x3606 ?x3983)) 33 (ite (>= ?x1423 (+ ?x3431 ?x2094)) 32 ?x5484))))
 (let ((?x2445 (ite (> 22803 (+ (+ ?x2118 (- 34 ?x3802)) 24003)) 1 (ite (<= 25203 (+ (+ ?x2118 (- 34 ?x3802)) 24003)) (- 1) 0))))
 (let ((?x3572 (select ?x202 34)))
 (let ((?x3470 (ite (> 22803 (+ (+ ?x2118 (- 35 ?x3802)) 24003)) 1 (ite (<= 25203 (+ (+ ?x2118 (- 35 ?x3802)) 24003)) (- 1) 0))))
 (let ((?x4016 (select ?x202 35)))
 (let ((?x3111 (ite (>= ?x1423 (+ ?x4016 ?x3470)) 35 (ite (>= ?x1423 (+ ?x3572 ?x2445)) 34 ?x4719))))
 (let ((?x3009 (ite (> 22803 (+ (+ ?x2118 (- 36 ?x3802)) 24003)) 1 (ite (<= 25203 (+ (+ ?x2118 (- 36 ?x3802)) 24003)) (- 1) 0))))
 (let ((?x2128 (select ?x202 36)))
 (let ((?x2547 (ite (> 22803 (+ (+ ?x2118 (- 37 ?x3802)) 24003)) 1 (ite (<= 25203 (+ (+ ?x2118 (- 37 ?x3802)) 24003)) (- 1) 0))))
 (let ((?x905 (select ?x202 37)))
 (let ((?x2869 (ite (>= ?x1423 (+ ?x905 ?x2547)) 37 (ite (>= ?x1423 (+ ?x2128 ?x3009)) 36 ?x3111))))
 (let ((?x2336 (ite (> 22803 (+ (+ ?x2118 (- 38 ?x3802)) 24003)) 1 (ite (<= 25203 (+ (+ ?x2118 (- 38 ?x3802)) 24003)) (- 1) 0))))
 (let ((?x365 (select ?x202 38)))
 (let ((?x2638 (ite (> 22803 (+ (+ ?x2118 (- 39 ?x3802)) 24003)) 1 (ite (<= 25203 (+ (+ ?x2118 (- 39 ?x3802)) 24003)) (- 1) 0))))
 (let ((?x584 (select ?x202 39)))
 (let ((?x1964 (ite (>= ?x1423 (+ ?x584 ?x2638)) 39 (ite (>= ?x1423 (+ ?x365 ?x2336)) 38 ?x2869))))
 (let ((?x3460 (ite (> 22803 (+ (+ ?x2118 (- 40 ?x3802)) 24003)) 1 (ite (<= 25203 (+ (+ ?x2118 (- 40 ?x3802)) 24003)) (- 1) 0))))
 (let ((?x3621 (select ?x202 40)))
 (let ((?x3571 (ite (> 22803 (+ (+ ?x2118 (- 41 ?x3802)) 24003)) 1 (ite (<= 25203 (+ (+ ?x2118 (- 41 ?x3802)) 24003)) (- 1) 0))))
 (let ((?x5414 (select ?x202 41)))
 (let ((?x4341 (ite (>= ?x1423 (+ ?x5414 ?x3571)) 41 (ite (>= ?x1423 (+ ?x3621 ?x3460)) 40 ?x1964))))
 (let ((?x3507 (ite (> 22803 (+ (+ ?x2118 (- 42 ?x3802)) 24003)) 1 (ite (<= 25203 (+ (+ ?x2118 (- 42 ?x3802)) 24003)) (- 1) 0))))
 (let ((?x1987 (select ?x202 42)))
 (let ((?x3896 (ite (> 22803 (+ (+ ?x2118 (- 43 ?x3802)) 24003)) 1 (ite (<= 25203 (+ (+ ?x2118 (- 43 ?x3802)) 24003)) (- 1) 0))))
 (let ((?x2544 (select ?x202 43)))
 (let ((?x2856 (ite (>= ?x1423 (+ ?x2544 ?x3896)) 43 (ite (>= ?x1423 (+ ?x1987 ?x3507)) 42 ?x4341))))
 (let ((?x1461 (ite (> 22803 (+ (+ ?x2118 (- 44 ?x3802)) 24003)) 1 (ite (<= 25203 (+ (+ ?x2118 (- 44 ?x3802)) 24003)) (- 1) 0))))
 (let ((?x4284 (select ?x202 44)))
 (let ((?x3061 (ite (> 22803 (+ (+ ?x2118 (- 45 ?x3802)) 24003)) 1 (ite (<= 25203 (+ (+ ?x2118 (- 45 ?x3802)) 24003)) (- 1) 0))))
 (let ((?x3439 (select ?x202 45)))
 (let ((?x5561 (ite (>= ?x1423 (+ ?x3439 ?x3061)) 45 (ite (>= ?x1423 (+ ?x4284 ?x1461)) 44 ?x2856))))
 (let ((?x1381 (ite (> 22803 (+ (+ ?x2118 (- 46 ?x3802)) 24003)) 1 (ite (<= 25203 (+ (+ ?x2118 (- 46 ?x3802)) 24003)) (- 1) 0))))
 (let ((?x5504 (select ?x202 46)))
 (let ((?x5403 (ite (> 22803 (+ (+ ?x2118 (- 47 ?x3802)) 24003)) 1 (ite (<= 25203 (+ (+ ?x2118 (- 47 ?x3802)) 24003)) (- 1) 0))))
 (let ((?x933 (select ?x202 47)))
 (let ((?x1179 (ite (>= ?x1423 (+ ?x933 ?x5403)) 47 (ite (>= ?x1423 (+ ?x5504 ?x1381)) 46 ?x5561))))
 (let ((?x485 (+ ?x2118 (- ?x1179 ?x3802))))
 (let ((?x4297 (+ ?x485 24003)))
 (let ((?x3622 (+ (select ?x202 ?x1179) (ite (> 22803 ?x4297) 1 (ite (<= 25203 ?x4297) (- 1) 0)))))
 (let ((?x2219 (- ?x1423 ?x3622)))
 (let ((?x3933 (ite (or (= 22802 ?x4297) (= 25202 ?x4297)) 28 (select ?x108 ?x1179))))
 (let (($x2631 (= y_beta (ite (= 1 (ite (>= ?x2219 ?x3933) 1 0)) (- ?x2219 ?x3933) ?x2219))))
 (and (= y_months (+ ?x485 (ite (>= ?x2219 ?x3933) 1 0))) $x2631)))))))))))))))))))))))))))))))))))))))))))))))))))))))))))))))))))))))))))))))))))))))))))))))))))))))))))))))))))))))))))))))))))))))))))))))))))))))))))))))))))))))))))))))))))))))))))))))))))))
(assert
 (let ((?x5143 (+ x_months 0)))
 (let ((?x3643 (mod ?x5143 48)))
 (let ((?x1192 (ite (> 22803 (+ ?x5143 24003)) 1 (ite (<= 25203 (+ ?x5143 24003)) (- 1) 0))))
 (let ((?x13 ((as const (Array Int Int)) 0)))
 (let ((?x15 (store ?x13 0 31)))
 (let ((?x18 (store ?x15 1 30)))
 (let ((?x20 (store ?x18 2 31)))
 (let ((?x22 (store ?x20 3 30)))
 (let ((?x24 (store ?x22 4 31)))
 (let ((?x26 (store ?x24 5 31)))
 (let ((?x28 (store ?x26 6 30)))
 (let ((?x30 (store ?x28 7 31)))
 (let ((?x32 (store ?x30 8 30)))
 (let ((?x34 (store ?x32 9 31)))
 (let ((?x36 (store ?x34 10 31)))
 (let ((?x39 (store ?x36 11 28)))
 (let ((?x41 (store ?x39 12 31)))
 (let ((?x43 (store ?x41 13 30)))
 (let ((?x45 (store ?x43 14 31)))
 (let ((?x47 (store ?x45 15 30)))
 (let ((?x49 (store ?x47 16 31)))
 (let ((?x51 (store ?x49 17 31)))
 (let ((?x53 (store ?x51 18 30)))
 (let ((?x55 (store ?x53 19 31)))
 (let ((?x57 (store ?x55 20 30)))
 (let ((?x59 (store ?x57 21 31)))
 (let ((?x61 (store ?x59 22 31)))
 (let ((?x63 (store ?x61 23 28)))
 (let ((?x65 (store ?x63 24 31)))
 (let ((?x67 (store ?x65 25 30)))
 (let ((?x69 (store ?x67 26 31)))
 (let ((?x71 (store ?x69 27 30)))
 (let ((?x72 (store ?x71 28 31)))
 (let ((?x74 (store ?x72 29 31)))
 (let ((?x75 (store ?x74 30 30)))
 (let ((?x76 (store ?x75 31 31)))
 (let ((?x78 (store ?x76 32 30)))
 (let ((?x80 (store ?x78 33 31)))
 (let ((?x82 (store ?x80 34 31)))
 (let ((?x84 (store ?x82 35 28)))
 (let ((?x86 (store ?x84 36 31)))
 (let ((?x88 (store ?x86 37 30)))
 (let ((?x90 (store ?x88 38 31)))
 (let ((?x92 (store ?x90 39 30)))
 (let ((?x94 (store ?x92 40 31)))
 (let ((?x96 (store ?x94 41 31)))
 (let ((?x98 (store ?x96 42 30)))
 (let ((?x100 (store ?x98 43 31)))
 (let ((?x102 (store ?x100 44 30)))
 (let ((?x104 (store ?x102 45 31)))
 (let ((?x106 (store ?x104 46 31)))
 (let ((?x108 (store ?x106 47 29)))
 (let ((?x1052 (ite (or (= 22802 (+ ?x5143 24003)) (= 25202 (+ ?x5143 24003))) 28 (select ?x108 ?x3643))))
 (let ((?x3515 (- ?x1052 1)))
 (let (($x3585 (> 0 x_beta)))
 (let ((?x114 (store (store (store (store ?x13 0 0) 1 31) 2 61) 3 92)))
 (let ((?x122 (store (store (store (store ?x114 4 122) 5 153) 6 184) 7 214)))
 (let ((?x130 (store (store (store (store ?x122 8 245) 9 275) 10 306) 11 337)))
 (let ((?x138 (store (store (store (store ?x130 12 365) 13 396) 14 426) 15 457)))
 (let ((?x146 (store (store (store (store ?x138 16 487) 17 518) 18 549) 19 579)))
 (let ((?x154 (store (store (store (store ?x146 20 610) 21 640) 22 671) 23 702)))
 (let ((?x162 (store (store (store (store ?x154 24 730) 25 761) 26 791) 27 822)))
 (let ((?x170 (store (store (store (store ?x162 28 852) 29 883) 30 914) 31 944)))
 (let ((?x178 (store (store (store (store ?x170 32 975) 33 1005) 34 1036) 35 1067)))
 (let ((?x186 (store (store (store (store ?x178 36 1095) 37 1126) 38 1156) 39 1187)))
 (let ((?x194 (store (store (store (store ?x186 40 1217) 41 1248) 42 1279) 43 1309)))
 (let ((?x202 (store (store (store (store ?x194 44 1340) 45 1370) 46 1401) 47 1432)))
 (let ((?x3671 (+ (select ?x202 ?x3643) (ite $x3585 0 (ite (> x_beta ?x3515) ?x3515 x_beta)))))
 (let ((?x4650 (+ (+ ?x3671 ?x1192) 365)))
 (let ((?x1261 (+ ?x5143 (* (div ?x4650 1461) 48))))
 (let ((?x4181 (+ (+ ?x1261 (- 1 ?x3643)) 24003)))
 (let ((?x3002 (select ?x202 1)))
 (let ((?x5376 (mod ?x4650 1461)))
 (let (($x2938 (>= ?x5376 (+ ?x3002 (ite (> 22803 ?x4181) 1 (ite (<= 25203 ?x4181) (- 1) 0))))))
 (let ((?x4815 (ite (> 22803 (+ (+ ?x1261 (- 2 ?x3643)) 24003)) 1 (ite (<= 25203 (+ (+ ?x1261 (- 2 ?x3643)) 24003)) (- 1) 0))))
 (let ((?x4278 (select ?x202 2)))
 (let ((?x1313 (ite (> 22803 (+ (+ ?x1261 (- 3 ?x3643)) 24003)) 1 (ite (<= 25203 (+ (+ ?x1261 (- 3 ?x3643)) 24003)) (- 1) 0))))
 (let ((?x4797 (select ?x202 3)))
 (let ((?x5121 (ite (>= ?x5376 (+ ?x4797 ?x1313)) 3 (ite (>= ?x5376 (+ ?x4278 ?x4815)) 2 (ite $x2938 1 0)))))
 (let ((?x5606 (ite (> 22803 (+ (+ ?x1261 (- 4 ?x3643)) 24003)) 1 (ite (<= 25203 (+ (+ ?x1261 (- 4 ?x3643)) 24003)) (- 1) 0))))
 (let ((?x1966 (select ?x202 4)))
 (let ((?x1012 (ite (> 22803 (+ (+ ?x1261 (- 5 ?x3643)) 24003)) 1 (ite (<= 25203 (+ (+ ?x1261 (- 5 ?x3643)) 24003)) (- 1) 0))))
 (let ((?x1113 (select ?x202 5)))
 (let ((?x1618 (ite (>= ?x5376 (+ ?x1113 ?x1012)) 5 (ite (>= ?x5376 (+ ?x1966 ?x5606)) 4 ?x5121))))
 (let ((?x501 (ite (> 22803 (+ (+ ?x1261 (- 6 ?x3643)) 24003)) 1 (ite (<= 25203 (+ (+ ?x1261 (- 6 ?x3643)) 24003)) (- 1) 0))))
 (let ((?x4270 (select ?x202 6)))
 (let ((?x4808 (ite (> 22803 (+ (+ ?x1261 (- 7 ?x3643)) 24003)) 1 (ite (<= 25203 (+ (+ ?x1261 (- 7 ?x3643)) 24003)) (- 1) 0))))
 (let ((?x207 (select ?x202 7)))
 (let ((?x2896 (ite (>= ?x5376 (+ ?x207 ?x4808)) 7 (ite (>= ?x5376 (+ ?x4270 ?x501)) 6 ?x1618))))
 (let ((?x1958 (ite (> 22803 (+ (+ ?x1261 (- 8 ?x3643)) 24003)) 1 (ite (<= 25203 (+ (+ ?x1261 (- 8 ?x3643)) 24003)) (- 1) 0))))
 (let ((?x4348 (select ?x202 8)))
 (let ((?x4261 (ite (> 22803 (+ (+ ?x1261 (- 9 ?x3643)) 24003)) 1 (ite (<= 25203 (+ (+ ?x1261 (- 9 ?x3643)) 24003)) (- 1) 0))))
 (let ((?x2156 (select ?x202 9)))
 (let ((?x4676 (ite (>= ?x5376 (+ ?x2156 ?x4261)) 9 (ite (>= ?x5376 (+ ?x4348 ?x1958)) 8 ?x2896))))
 (let ((?x3803 (ite (> 22803 (+ (+ ?x1261 (- 10 ?x3643)) 24003)) 1 (ite (<= 25203 (+ (+ ?x1261 (- 10 ?x3643)) 24003)) (- 1) 0))))
 (let ((?x3721 (select ?x202 10)))
 (let ((?x3719 (ite (> 22803 (+ (+ ?x1261 (- 11 ?x3643)) 24003)) 1 (ite (<= 25203 (+ (+ ?x1261 (- 11 ?x3643)) 24003)) (- 1) 0))))
 (let ((?x1432 (select ?x202 11)))
 (let ((?x5493 (ite (>= ?x5376 (+ ?x1432 ?x3719)) 11 (ite (>= ?x5376 (+ ?x3721 ?x3803)) 10 ?x4676))))
 (let ((?x1914 (ite (> 22803 (+ (+ ?x1261 (- 12 ?x3643)) 24003)) 1 (ite (<= 25203 (+ (+ ?x1261 (- 12 ?x3643)) 24003)) (- 1) 0))))
 (let ((?x2925 (select ?x202 12)))
 (let ((?x4874 (ite (> 22803 (+ (+ ?x1261 (- 13 ?x3643)) 24003)) 1 (ite (<= 25203 (+ (+ ?x1261 (- 13 ?x3643)) 24003)) (- 1) 0))))
 (let ((?x4624 (select ?x202 13)))
 (let ((?x5402 (ite (>= ?x5376 (+ ?x4624 ?x4874)) 13 (ite (>= ?x5376 (+ ?x2925 ?x1914)) 12 ?x5493))))
 (let ((?x2498 (ite (> 22803 (+ (+ ?x1261 (- 14 ?x3643)) 24003)) 1 (ite (<= 25203 (+ (+ ?x1261 (- 14 ?x3643)) 24003)) (- 1) 0))))
 (let ((?x1981 (select ?x202 14)))
 (let ((?x245 (ite (> 22803 (+ (+ ?x1261 (- 15 ?x3643)) 24003)) 1 (ite (<= 25203 (+ (+ ?x1261 (- 15 ?x3643)) 24003)) (- 1) 0))))
 (let ((?x5040 (select ?x202 15)))
 (let ((?x572 (ite (>= ?x5376 (+ ?x5040 ?x245)) 15 (ite (>= ?x5376 (+ ?x1981 ?x2498)) 14 ?x5402))))
 (let ((?x1562 (ite (> 22803 (+ (+ ?x1261 (- 16 ?x3643)) 24003)) 1 (ite (<= 25203 (+ (+ ?x1261 (- 16 ?x3643)) 24003)) (- 1) 0))))
 (let ((?x2484 (select ?x202 16)))
 (let ((?x4173 (ite (> 22803 (+ (+ ?x1261 (- 17 ?x3643)) 24003)) 1 (ite (<= 25203 (+ (+ ?x1261 (- 17 ?x3643)) 24003)) (- 1) 0))))
 (let ((?x3415 (select ?x202 17)))
 (let ((?x3119 (ite (>= ?x5376 (+ ?x3415 ?x4173)) 17 (ite (>= ?x5376 (+ ?x2484 ?x1562)) 16 ?x572))))
 (let ((?x2679 (ite (> 22803 (+ (+ ?x1261 (- 18 ?x3643)) 24003)) 1 (ite (<= 25203 (+ (+ ?x1261 (- 18 ?x3643)) 24003)) (- 1) 0))))
 (let ((?x2356 (select ?x202 18)))
 (let ((?x1984 (ite (> 22803 (+ (+ ?x1261 (- 19 ?x3643)) 24003)) 1 (ite (<= 25203 (+ (+ ?x1261 (- 19 ?x3643)) 24003)) (- 1) 0))))
 (let ((?x3409 (select ?x202 19)))
 (let ((?x2116 (ite (>= ?x5376 (+ ?x3409 ?x1984)) 19 (ite (>= ?x5376 (+ ?x2356 ?x2679)) 18 ?x3119))))
 (let ((?x4275 (ite (> 22803 (+ (+ ?x1261 (- 20 ?x3643)) 24003)) 1 (ite (<= 25203 (+ (+ ?x1261 (- 20 ?x3643)) 24003)) (- 1) 0))))
 (let ((?x2524 (select ?x202 20)))
 (let ((?x2120 (ite (> 22803 (+ (+ ?x1261 (- 21 ?x3643)) 24003)) 1 (ite (<= 25203 (+ (+ ?x1261 (- 21 ?x3643)) 24003)) (- 1) 0))))
 (let ((?x2529 (select ?x202 21)))
 (let ((?x2020 (ite (>= ?x5376 (+ ?x2529 ?x2120)) 21 (ite (>= ?x5376 (+ ?x2524 ?x4275)) 20 ?x2116))))
 (let ((?x2569 (ite (> 22803 (+ (+ ?x1261 (- 22 ?x3643)) 24003)) 1 (ite (<= 25203 (+ (+ ?x1261 (- 22 ?x3643)) 24003)) (- 1) 0))))
 (let ((?x477 (select ?x202 22)))
 (let ((?x5120 (ite (> 22803 (+ (+ ?x1261 (- 23 ?x3643)) 24003)) 1 (ite (<= 25203 (+ (+ ?x1261 (- 23 ?x3643)) 24003)) (- 1) 0))))
 (let ((?x1897 (select ?x202 23)))
 (let ((?x5370 (ite (>= ?x5376 (+ ?x1897 ?x5120)) 23 (ite (>= ?x5376 (+ ?x477 ?x2569)) 22 ?x2020))))
 (let ((?x5904 (ite (> 22803 (+ (+ ?x1261 (- 24 ?x3643)) 24003)) 1 (ite (<= 25203 (+ (+ ?x1261 (- 24 ?x3643)) 24003)) (- 1) 0))))
 (let ((?x4433 (select ?x202 24)))
 (let ((?x5295 (ite (> 22803 (+ (+ ?x1261 (- 25 ?x3643)) 24003)) 1 (ite (<= 25203 (+ (+ ?x1261 (- 25 ?x3643)) 24003)) (- 1) 0))))
 (let ((?x3182 (select ?x202 25)))
 (let ((?x4368 (ite (>= ?x5376 (+ ?x3182 ?x5295)) 25 (ite (>= ?x5376 (+ ?x4433 ?x5904)) 24 ?x5370))))
 (let ((?x5114 (ite (> 22803 (+ (+ ?x1261 (- 26 ?x3643)) 24003)) 1 (ite (<= 25203 (+ (+ ?x1261 (- 26 ?x3643)) 24003)) (- 1) 0))))
 (let ((?x3191 (select ?x202 26)))
 (let ((?x6045 (ite (> 22803 (+ (+ ?x1261 (- 27 ?x3643)) 24003)) 1 (ite (<= 25203 (+ (+ ?x1261 (- 27 ?x3643)) 24003)) (- 1) 0))))
 (let ((?x4324 (select ?x202 27)))
 (let ((?x6049 (ite (>= ?x5376 (+ ?x4324 ?x6045)) 27 (ite (>= ?x5376 (+ ?x3191 ?x5114)) 26 ?x4368))))
 (let ((?x6061 (ite (> 22803 (+ (+ ?x1261 (- 28 ?x3643)) 24003)) 1 (ite (<= 25203 (+ (+ ?x1261 (- 28 ?x3643)) 24003)) (- 1) 0))))
 (let ((?x5510 (select ?x202 28)))
 (let ((?x6076 (ite (> 22803 (+ (+ ?x1261 (- 29 ?x3643)) 24003)) 1 (ite (<= 25203 (+ (+ ?x1261 (- 29 ?x3643)) 24003)) (- 1) 0))))
 (let ((?x1169 (select ?x202 29)))
 (let ((?x6080 (ite (>= ?x5376 (+ ?x1169 ?x6076)) 29 (ite (>= ?x5376 (+ ?x5510 ?x6061)) 28 ?x6049))))
 (let ((?x6091 (ite (> 22803 (+ (+ ?x1261 (- 30 ?x3643)) 24003)) 1 (ite (<= 25203 (+ (+ ?x1261 (- 30 ?x3643)) 24003)) (- 1) 0))))
 (let ((?x2189 (select ?x202 30)))
 (let ((?x6107 (ite (> 22803 (+ (+ ?x1261 (- 31 ?x3643)) 24003)) 1 (ite (<= 25203 (+ (+ ?x1261 (- 31 ?x3643)) 24003)) (- 1) 0))))
 (let ((?x418 (select ?x202 31)))
 (let ((?x6113 (ite (>= ?x5376 (+ ?x418 ?x6107)) 31 (ite (>= ?x5376 (+ ?x2189 ?x6091)) 30 ?x6080))))
 (let ((?x6122 (ite (> 22803 (+ (+ ?x1261 (- 32 ?x3643)) 24003)) 1 (ite (<= 25203 (+ (+ ?x1261 (- 32 ?x3643)) 24003)) (- 1) 0))))
 (let ((?x3431 (select ?x202 32)))
 (let ((?x6137 (ite (> 22803 (+ (+ ?x1261 (- 33 ?x3643)) 24003)) 1 (ite (<= 25203 (+ (+ ?x1261 (- 33 ?x3643)) 24003)) (- 1) 0))))
 (let ((?x3606 (select ?x202 33)))
 (let ((?x6144 (ite (>= ?x5376 (+ ?x3606 ?x6137)) 33 (ite (>= ?x5376 (+ ?x3431 ?x6122)) 32 ?x6113))))
 (let ((?x6158 (ite (> 22803 (+ (+ ?x1261 (- 34 ?x3643)) 24003)) 1 (ite (<= 25203 (+ (+ ?x1261 (- 34 ?x3643)) 24003)) (- 1) 0))))
 (let ((?x3572 (select ?x202 34)))
 (let ((?x6173 (ite (> 22803 (+ (+ ?x1261 (- 35 ?x3643)) 24003)) 1 (ite (<= 25203 (+ (+ ?x1261 (- 35 ?x3643)) 24003)) (- 1) 0))))
 (let ((?x4016 (select ?x202 35)))
 (let ((?x6177 (ite (>= ?x5376 (+ ?x4016 ?x6173)) 35 (ite (>= ?x5376 (+ ?x3572 ?x6158)) 34 ?x6144))))
 (let ((?x6183 (ite (> 22803 (+ (+ ?x1261 (- 36 ?x3643)) 24003)) 1 (ite (<= 25203 (+ (+ ?x1261 (- 36 ?x3643)) 24003)) (- 1) 0))))
 (let ((?x2128 (select ?x202 36)))
 (let ((?x6193 (ite (> 22803 (+ (+ ?x1261 (- 37 ?x3643)) 24003)) 1 (ite (<= 25203 (+ (+ ?x1261 (- 37 ?x3643)) 24003)) (- 1) 0))))
 (let ((?x905 (select ?x202 37)))
 (let ((?x6196 (ite (>= ?x5376 (+ ?x905 ?x6193)) 37 (ite (>= ?x5376 (+ ?x2128 ?x6183)) 36 ?x6177))))
 (let ((?x6203 (ite (> 22803 (+ (+ ?x1261 (- 38 ?x3643)) 24003)) 1 (ite (<= 25203 (+ (+ ?x1261 (- 38 ?x3643)) 24003)) (- 1) 0))))
 (let ((?x365 (select ?x202 38)))
 (let ((?x6213 (ite (> 22803 (+ (+ ?x1261 (- 39 ?x3643)) 24003)) 1 (ite (<= 25203 (+ (+ ?x1261 (- 39 ?x3643)) 24003)) (- 1) 0))))
 (let ((?x584 (select ?x202 39)))
 (let ((?x6216 (ite (>= ?x5376 (+ ?x584 ?x6213)) 39 (ite (>= ?x5376 (+ ?x365 ?x6203)) 38 ?x6196))))
 (let ((?x6223 (ite (> 22803 (+ (+ ?x1261 (- 40 ?x3643)) 24003)) 1 (ite (<= 25203 (+ (+ ?x1261 (- 40 ?x3643)) 24003)) (- 1) 0))))
 (let ((?x3621 (select ?x202 40)))
 (let ((?x6239 (ite (> 22803 (+ (+ ?x1261 (- 41 ?x3643)) 24003)) 1 (ite (<= 25203 (+ (+ ?x1261 (- 41 ?x3643)) 24003)) (- 1) 0))))
 (let ((?x5414 (select ?x202 41)))
 (let ((?x6240 (ite (>= ?x5376 (+ ?x5414 ?x6239)) 41 (ite (>= ?x5376 (+ ?x3621 ?x6223)) 40 ?x6216))))
 (let ((?x3959 (ite (> 22803 (+ (+ ?x1261 (- 42 ?x3643)) 24003)) 1 (ite (<= 25203 (+ (+ ?x1261 (- 42 ?x3643)) 24003)) (- 1) 0))))
 (let ((?x1987 (select ?x202 42)))
 (let ((?x4659 (ite (> 22803 (+ (+ ?x1261 (- 43 ?x3643)) 24003)) 1 (ite (<= 25203 (+ (+ ?x1261 (- 43 ?x3643)) 24003)) (- 1) 0))))
 (let ((?x2544 (select ?x202 43)))
 (let ((?x3974 (ite (>= ?x5376 (+ ?x2544 ?x4659)) 43 (ite (>= ?x5376 (+ ?x1987 ?x3959)) 42 ?x6240))))
 (let ((?x1878 (ite (> 22803 (+ (+ ?x1261 (- 44 ?x3643)) 24003)) 1 (ite (<= 25203 (+ (+ ?x1261 (- 44 ?x3643)) 24003)) (- 1) 0))))
 (let ((?x4284 (select ?x202 44)))
 (let ((?x2860 (ite (> 22803 (+ (+ ?x1261 (- 45 ?x3643)) 24003)) 1 (ite (<= 25203 (+ (+ ?x1261 (- 45 ?x3643)) 24003)) (- 1) 0))))
 (let ((?x3439 (select ?x202 45)))
 (let ((?x3788 (ite (>= ?x5376 (+ ?x3439 ?x2860)) 45 (ite (>= ?x5376 (+ ?x4284 ?x1878)) 44 ?x3974))))
 (let ((?x2542 (ite (> 22803 (+ (+ ?x1261 (- 46 ?x3643)) 24003)) 1 (ite (<= 25203 (+ (+ ?x1261 (- 46 ?x3643)) 24003)) (- 1) 0))))
 (let ((?x5504 (select ?x202 46)))
 (let ((?x3250 (ite (> 22803 (+ (+ ?x1261 (- 47 ?x3643)) 24003)) 1 (ite (<= 25203 (+ (+ ?x1261 (- 47 ?x3643)) 24003)) (- 1) 0))))
 (let ((?x933 (select ?x202 47)))
 (let ((?x4101 (ite (>= ?x5376 (+ ?x933 ?x3250)) 47 (ite (>= ?x5376 (+ ?x5504 ?x2542)) 46 ?x3788))))
 (let ((?x3765 (+ ?x1261 (- ?x4101 ?x3643))))
 (let ((?x1476 (+ ?x3765 24003)))
 (let ((?x1867 (+ (select ?x202 ?x4101) (ite (> 22803 ?x1476) 1 (ite (<= 25203 ?x1476) (- 1) 0)))))
 (let ((?x3732 (- ?x5376 ?x1867)))
 (let ((?x2774 (ite (or (= 22802 ?x1476) (= 25202 ?x1476)) 28 (select ?x108 ?x4101))))
 (let (($x1882 (= y_beta (ite (= 1 (ite (>= ?x3732 ?x2774) 1 0)) (- ?x3732 ?x2774) ?x3732))))
 (not (and (= y_months (+ ?x3765 (ite (>= ?x3732 ?x2774) 1 0))) $x1882))))))))))))))))))))))))))))))))))))))))))))))))))))))))))))))))))))))))))))))))))))))))))))))))))))))))))))))))))))))))))))))))))))))))))))))))))))))))))))))))))))))))))))))))))))))))))))))))))))))
(assert
 (and (= x_months (- (+ (* 2020 12) 1) 24003)) (= 29 x_beta)))
(assert
 (and (= y_months (- (+ (* 2021 12) 1) 24003)) (= 29 y_beta)))
(check-sat)
